p cnf 79 299
-1 2 -3 0
1 -2 -3 0
-1 -2 3 0
1 2 3 0
4 -3 0
4 -3 0
3 -4 0
-6 5 0
-6 -2 0
-5 2 6 0
-8 9 -10 0
8 -9 -10 0
-8 -9 10 0
8 9 10 0
-11 -7 0
-11 -10 0
7 10 11 0
-11 8 -12 0
11 -8 -12 0
-11 -8 12 0
11 8 12 0
-13 6 0
-13 12 0
-6 -12 13 0
14 -13 0
14 -11 0
13 11 -14 0
15 -1 -16 0
-15 1 -16 0
15 1 16 0
-15 -1 16 0
-17 16 0
-17 10 0
-16 -10 17 0
14 -17 -18 0
-14 17 -18 0
14 17 18 0
-14 -17 18 0
19 11 0
19 9 0
-11 -9 -19 0
-19 11 -20 0
19 -11 -20 0
-19 -11 20 0
19 11 20 0
-21 18 0
-21 -20 0
-18 20 21 0
22 -4 0
22 -21 0
4 21 -22 0
-23 -5 0
-23 10 0
5 -10 23 0
-3 23 -24 0
3 -23 -24 0
-3 -23 24 0
3 23 24 0
25 -11 0
25 -24 0
11 24 -25 0
-26 8 0
-26 12 0
-8 -12 26 0
-27 25 0
-27 -26 0
-25 26 27 0
-9 15 -28 0
9 -15 -28 0
-9 -15 28 0
9 15 28 0
-29 -30 0
29 -30 0
28 30 -31 0
-28 -30 -31 0
28 -30 31 0
-28 30 31 0
-32 -27 0
-32 -31 0
27 31 32 0
33 5 0
33 15 0
-5 -15 -33 0
-34 24 0
-34 33 0
-24 -33 34 0
35 32 0
35 -34 0
-32 34 -35 0
-37 5 0
-37 -36 0
-5 36 37 0
38 -37 0
38 -6 0
37 6 -38 0
-39 15 0
-39 -16 0
-15 16 39 0
-38 -39 -40 0
38 39 -40 0
-38 39 40 0
38 -39 40 0
41 39 0
41 -1 0
-39 1 -41 0
42 -10 0
42 11 0
10 -11 -42 0
-43 -41 0
-43 42 0
41 -42 43 0
-44 40 0
-44 -43 0
-40 43 44 0
35 -44 -45 0
-35 44 -45 0
35 44 45 0
-35 -44 45 0
46 -1 0
46 -8 0
1 8 -46 0
-46 11 -47 0
46 -11 -47 0
-46 -11 47 0
46 11 47 0
-48 -19 0
-48 -42 0
19 42 48 0
3 19 -49 0
-3 -19 -49 0
3 -19 49 0
-3 19 49 0
-50 39 0
-50 49 0
-39 -49 50 0
-51 48 0
-51 -50 0
-48 50 51 0
-52 -47 0
-52 51 0
47 -51 52 0
53 -50 0
53 7 0
50 -7 -53 0
-52 -53 -54 0
52 53 -54 0
-52 53 54 0
52 -53 54 0
55 3 0
55 9 0
-3 -9 -55 0
56 -54 0
56 55 0
54 -55 -56 0
6 9 -57 0
-6 -9 -57 0
6 -9 57 0
-6 9 57 0
58 -24 0
58 -41 0
24 41 -58 0
-57 58 -59 0
57 -58 -59 0
-57 -58 59 0
57 58 59 0
56 59 -60 0
-56 -59 -60 0
56 -59 60 0
-56 59 60 0
-42 -37 -61 0
42 37 -61 0
-42 37 61 0
42 -37 61 0
62 60 0
62 -61 0
-60 61 -62 0
45 62 -63 0
-45 -62 -63 0
45 -62 63 0
-45 62 63 0
-22 63 -64 0
22 -63 -64 0
-22 -63 64 0
22 63 64 0
-65 -13 0
-65 -24 0
13 24 65 0
66 -65 0
66 -24 0
65 24 -66 0
-48 2 -67 0
48 -2 -67 0
-48 -2 67 0
48 2 67 0
68 -2 0
68 19 0
2 -19 -68 0
69 50 0
69 50 0
-50 -69 0
69 23 -70 0
-69 -23 -70 0
69 -23 70 0
-69 23 70 0
-71 68 0
-71 70 0
-68 -70 71 0
72 -67 0
72 -71 0
67 71 -72 0
-73 66 0
-73 72 0
-66 -72 73 0
-74 23 0
-74 9 0
-23 -9 74 0
-75 -73 0
-75 -74 0
73 74 75 0
42 76 -77 0
-42 -76 -77 0
42 -76 77 0
-42 76 77 0
78 75 0
78 -77 0
-75 77 -78 0
-79 -64 0
-79 78 0
64 -78 79 0
-53 -62 -15 -12 0
18 44 -74 -37 0
17 68 0
17 26 -65 -44 -69 0
-24 -45 -64 38 -16 -22 0
-8 44 -26 38 67 0
65 -39 64 11 0
64 -11 62 -17 0
50 -39 1 13 12 0
-19 68 -39 0
-73 -14 0
77 48 -10 -4 17 0
-67 -46 0
17 -13 -53 -64 0
8 -52 -22 -63 0
23 -28 0
46 15 -36 -67 57 0
-68 22 0
-23 -76 0
-65 64 40 -75 60 20 0
21 72 46 0
13 -74 -14 -33 0
56 38 75 53 -26 -8 0
-28 32 15 50 0
77 49 -41 -71 75 0
25 54 15 0
-54 23 44 68 -41 36 0
14 -42 55 -75 59 0
39 -50 1 0
-47 -66 8 5 42 64 0
-66 32 50 58 34 0
-30 -70 7 54 -33 -75 0
-49 61 0
-43 34 -7 15 0
47 -71 -76 42 0
44 -21 -45 0
73 -61 -71 0
34 17 -54 0
-56 -70 11 23 0
18 -33 -32 -55 -19 77 0
72 22 -49 -58 0
-5 -11 -1 0
35 -55 -57 0
50 5 0
-1 47 -2 -12 0
-24 15 -13 36 27 0
-15 11 6 0
-9 52 -25 0
-4 70 42 30 -14 0
79 54 -21 -56 0
41 78 1 0
-30 52 0
-63 17 0
-68 -38 -47 -19 14 0
12 -41 -61 55 4 0
42 -79 -49 -53 31 63 0
-73 -8 -53 4 0
29 68 75 -56 0
-2 -51 -9 -77 0
-57 -13 -7 49 44 4 0
-68 28 57 -59 0
-60 -27 0
26 13 21 20 0
-55 -70 -1 17 -12 0
52 69 76 -71 -14 40 0
44 27 -13 -66 -26 0
44 -39 0
-60 -9 0
-77 41 -19 -32 64 0
79 0
